132 131 130 129 128 127 126 125 124 69 70 68 67 66 65 72 71 123 122 117 121 120 118 119 73 74 75 64 76 77 78 62 63 60 61 79 80 81 59 58 57 82 83 56 55 53 54 52 50 51 84 85 86 87 88 89 90 92 93 94 95 96 97 98 99 100 102 101 551 550 559 558 560 561 562 549 548 564 563 565 566 567 568 569 570 19 20 21 24 25 26 27 28 29 34 33 35 557 556 552 553 554 555 91 46 45 47 48 49 43 44 42 39 41 40 38 37 36 32 30 31 22 23 12 13 14 15 11 10 16 18 17 8 9 7 6 5 4 3 2 1 0 573 572 571 460 459 458 457 456 455 454 439 443 444 445 434 435 436 438 437 433 432 430 431 429 428 427 426 425 424 423 422 421 420 419 417 418 410 411 412 356 402 401 360 359 358 357 355 354 353 352 413 414 416 415 351 350 349 348 347 362 361 363 364 346 345 344 343 342 341 340 330 331 332 333 339 338 337 336 335 334 283 284 285 286 287 280 281 282 279 278 277 276 288 289 290 291 292 275 274 273 272 271 268 269 270 293 294 295 296 267 266 265 264 263 262 258 259 261 260 257 256 255 253 254 252 251 250 249 248 241 300 299 298 297 324 325 326 327 328 329 366 367 365 368 369 370 398 397 399 400 403 404 405 406 407 408 409 384 383 382 386 385 387 388 389 390 381 392 391 393 394 395 396 371 372 323 322 373 374 375 376 379 380 378 377 315 314 316 313 312 311 451 450 449 448 447 446 442 441 440 453 452 461 462 463 464 465 466 467 468 469 470 496 497 499 500 501 498 502 503 504 505 310 309 308 307 305 318 317 321 320 319 306 304 303 506 507 508 302 301 242 247 245 244 243 240 239 238 237 509 510 511 512 513 514 515 516 517 520 521 522 523 526 527 528 236 235 234 232 233 532 533 488 489 531 530 529 490 491 492 493 525 524 494 518 519 495 471 472 473 474 475 476 477 478 479 480 481 482 483 484 485 486 487 534 535 536 537 539 538 540 176 177 178 187 188 186 229 230 231 228 227 189 225 226 190 191 192 193 219 218 220 221 222 224 223 246 216 217 215 214 213 212 211 210 209 208 207 206 205 197 196 195 194 184 185 183 182 179 181 180 169 171 170 172 175 174 173 108 109 111 110 107 542 541 543 544 545 546 547 103 104 105 106 116 115 114 112 113 161 162 168 163 167 166 198 199 200 201 202 204 203 165 164 154 160 159 156 155 153 157 158 145 146 144 143 142 147 148 152 149 150 151 141 140 139 138 137 136 135 134 133